c Sudoku solution
p cnf 729 0
121 0
142 0
194 0
236 0
261 0
283 0
317 0
354 0
388 0
493 0
512 0
527 0
545 0
578 0
589 0
613 0
631 0
534 0
715 0
777 0
792 0
826 0
416 0
851 0
781 0
911 0
441 0
591 0
371 0
272 0
953 0
873 0
343 0
133 0
723 0
556 0
563 0
998 0
764 0
746 0
644 0
739 0
758 0
248 0
118 0
814 0
922 0
937 0
838 0
862 0
965 0
885 0
899 0
847 0
949 0
219 0
224 0
325 0
332 0
435 0
474 0
976 0
984 0
675 0
179 0
396 0
166 0
369 0
187 0
295 0
155 0
257 0
686 0
482 0
697 0
459 0
652 0
467 0
668 0
428 0
629 0
